Solver command line: []

Read LP format model from file C:\Users\wlhlm\AppData\Local\Temp\tmpgz4tbyr_.pyomo.lp
Reading time = 0.04 seconds
objective: 18661 rows, 16799 columns, 42331 nonzeros
Set parameter MIPGap to value 0.03
Gurobi Optimizer version 12.0.1 build v12.0.1rc0 (win64 - Windows 11.0 (26100.2))

CPU model: Intel(R) Core(TM) Ultra 7 258V, instruction set [SSE2|AVX|AVX2]
Thread count: 8 physical cores, 8 logical processors, using up to 8 threads

Non-default parameters:
MIPGap  0.03

Optimize a model with 18661 rows, 16799 columns and 42331 nonzeros
Model fingerprint: 0x92c5c736
Model has 167 quadratic constraints
Variable types: 14448 continuous, 2351 integer (2016 binary)
Coefficient statistics:
  Matrix range     [8e-03, 2e+02]
  QMatrix range    [1e+00, 1e+00]
  Objective range  [4e+01, 3e+02]
  Bounds range     [1e+00, 3e+00]
  RHS range        [2e-03, 1e+04]
Presolve removed 16130 rows and 13757 columns
Presolve time: 0.06s
Presolved: 2531 rows, 3042 columns, 8579 nonzeros
Variable types: 2387 continuous, 655 integer (655 binary)
Found heuristic solution: objective 2773263.5488

Root relaxation: objective 2.575546e+06, 1434 iterations, 0.01 seconds (0.02 work units)

    Nodes    |    Current Node    |     Objective Bounds      |     Work
 Expl Unexpl |  Obj  Depth IntInf | Incumbent    BestBd   Gap | It/Node Time

     0     0 2575546.48    0   16 2773263.55 2575546.48  7.13%     -    0s
H    0     0                    2576410.6367 2575546.48  0.03%     -    0s

Explored 1 nodes (1453 simplex iterations) in 0.09 seconds (0.11 work units)
Thread count was 8 (of 8 available processors)

Solution count 2: 2.57641e+06 2.77326e+06 

Optimal solution found (tolerance 3.00e-02)
Best objective 2.576410636694e+06, best bound 2.575546477174e+06, gap 0.0335%

